(set-logic QF_LIA)
(set-info :ran/ran_5_2.smt2)
(set-info :smt-lib-version 2.0)
(declare-fun x0 () Int)
(declare-fun x1 () Int)
(declare-fun x2 () Int)
(declare-fun x3 () Int)
(declare-fun x4 () Int)
(define-fun ie0 () Bool (<= (+ (* (- 94) x3) (* (- 7) x3) ) (- 6)))
(define-fun ie1 () Bool (<= (+ (* 9 x0) (* 78 x4) ) (- 76)))
(define-fun ie2 () Bool (<= (+ (* (- 35) x1) (* (- 55) x3) ) (- 8)))
(define-fun ie3 () Bool (<= (+ (* 87 x3) (* (- 93) x2) ) 24))
(define-fun ie4 () Bool (<= (+ (* 27 x4) (* (- 95) x3) ) (- 91)))
(define-fun ie5 () Bool (<= (+ (* (- 98) x4) (* 40 x2) ) 35))
(define-fun ie6 () Bool (<= (+ (* 35 x3) (* (- 95) x3) ) (- 32)))
(define-fun ie7 () Bool (<= (+ (* 0 x4) (* (- 16) x3) ) 68))
(define-fun ie8 () Bool (<= (+ (* (- 40) x3) (* 99 x1) ) 59))
(define-fun ie9 () Bool (<= (+ (* (- 9) x0) (* 37 x0) ) (- 51)))
(define-fun ie10 () Bool (<= (+ (* (- 38) x2) (* (- 97) x4) ) (- 12)))
(define-fun ie11 () Bool (<= (+ (* (- 88) x1) (* (- 73) x4) ) 20))
(define-fun ie12 () Bool (<= (+ (* 14 x4) (* (- 74) x2) ) (- 81)))
(define-fun ie13 () Bool (<= (+ (* (- 6) x2) (* 8 x3) ) (- 98)))
(define-fun ie14 () Bool (<= (+ (* (- 23) x1) (* (- 3) x3) ) (- 3)))
(define-fun ie15 () Bool (<= (+ (* (- 44) x2) (* (- 6) x1) ) 22))
(define-fun ie16 () Bool (<= (+ (* 43 x3) (* (- 48) x1) ) 79))
(define-fun ie17 () Bool (<= (+ (* 40 x0) (* (- 100) x4) ) (- 86)))
(define-fun ie18 () Bool (<= (+ (* (- 28) x0) (* (- 95) x3) ) (- 43)))
(define-fun ie19 () Bool (<= (+ (* (- 76) x3) (* 81 x4) ) 23))
(define-fun ie20 () Bool (<= (+ (* 83 x3) (* 14 x1) ) 42))
(define-fun ie21 () Bool (<= (+ (* 63 x4) (* (- 86) x2) ) (- 65)))
(define-fun ie22 () Bool (<= (+ (* (- 12) x0) (* 95 x0) ) (- 2)))
(define-fun ie23 () Bool (<= (+ (* 74 x2) (* 60 x4) ) 3))
(define-fun ie24 () Bool (<= (+ (* 26 x2) (* (- 11) x1) ) (- 3)))
(define-fun ie25 () Bool (<= (+ (* (- 2) x2) (* (- 10) x0) ) 44))
(define-fun ie26 () Bool (<= (+ (* 66 x3) (* (- 43) x0) ) (- 4)))
(define-fun ie27 () Bool (<= (+ (* 99 x4) (* 86 x0) ) (- 47)))
(define-fun ie28 () Bool (<= (+ (* 73 x1) (* (- 94) x4) ) 46))
(define-fun ie29 () Bool (<= (+ (* (- 44) x3) (* 31 x2) ) (- 30)))
(assert ie0)
(assert ie1)
(assert ie2)
(assert ie3)
(assert ie4)
(assert ie5)
(assert ie6)
(assert ie7)
(assert ie8)
(assert ie9)
(assert ie10)
(assert ie11)
(assert ie12)
(assert ie13)
(assert ie14)
(assert ie15)
(assert ie16)
(assert ie17)
(assert ie18)
(assert ie19)
(assert ie20)
(assert ie21)
(assert ie22)
(assert ie23)
(assert ie24)
(assert ie25)
(assert ie26)
(assert ie27)
(assert ie28)
(assert ie29)
(check-sat)
(exit)
